NPROCS=0
This instance is clustered!
Gurobi Optimizer version 9.0.0 build v9.0.0rc2 (linux64)
Optimize a model with 26 rows, 170 columns and 338 nonzeros
Model fingerprint: 0x9508af13
Variable types: 1 continuous, 169 integer (169 binary)
Coefficient statistics:
  Matrix range     [1e+00, 1e+00]
  Objective range  [1e+00, 1e+02]
  Bounds range     [1e+00, 1e+00]
  RHS range        [1e+00, 1e+00]
Presolve removed 2 rows and 36 columns
Presolve time: 0.00s
Presolved: 24 rows, 134 columns, 266 nonzeros
Variable types: 1 continuous, 133 integer (133 binary)

Root relaxation: objective 1.740088e+02, 18 iterations, 0.00 seconds

    Nodes    |    Current Node    |     Objective Bounds      |     Work
 Expl Unexpl |  Obj  Depth IntInf | Incumbent    BestBd   Gap | It/Node Time

     0     0  239.84957    0   12          -  239.84957      -     -    0s
H    0     0                     338.1189287  239.84957  29.1%     -    0s
     0     0  268.98469    0   29  338.11893  268.98469  20.4%     -    0s
H    0     0                     299.0507724  268.98469  10.1%     -    0s
     0     0  269.68566    0   30  299.05077  269.68566  9.82%     -    0s
     0     0  269.68566    0   30  299.05077  269.68566  9.82%     -    0s
     0     0  269.68566    0   29  299.05077  269.68566  9.82%     -    0s
     0     0  269.92515    0   30  299.05077  269.92515  9.74%     -    0s
H    0     0                     294.5459041  269.92515  8.36%     -    0s
     0     0  270.05001    0   30  294.54590  270.05001  8.32%     -    0s
     0     0  270.61979    0   31  294.54590  270.61979  8.12%     -    0s
     0     0  270.66818    0   29  294.54590  270.66818  8.11%     -    0s
     0     0  270.66818    0   29  294.54590  270.66818  8.11%     -    0s
     0     0  271.30478    0   29  294.54590  271.30478  7.89%     -    0s
     0     0  271.30478    0   30  294.54590  271.30478  7.89%     -    0s
     0     0  271.30478    0   29  294.54590  271.30478  7.89%     -    0s
     0     0  271.30478    0   32  294.54590  271.30478  7.89%     -    0s
     0     0  271.30478    0   29  294.54590  271.30478  7.89%     -    0s
     0     0  271.30478    0   33  294.54590  271.30478  7.89%     -    0s
     0     0  271.30478    0   34  294.54590  271.30478  7.89%     -    0s
     0     0  271.30478    0   34  294.54590  271.30478  7.89%     -    0s
     0     0  271.30478    0   35  294.54590  271.30478  7.89%     -    0s
     0     0  271.30478    0   32  294.54590  271.30478  7.89%     -    0s
     0     0  271.30478    0   32  294.54590  271.30478  7.89%     -    0s
     0     0  271.30478    0   32  294.54590  271.30478  7.89%     -    0s
     0     2  271.30478    0   32  294.54590  271.30478  7.89%     -    0s
H  218    27                     294.5459032  278.20478  5.55%   5.3    0s

Cutting planes:
  Gomory: 6
  MIR: 3
  Zero half: 3
  RLT: 2
  Lazy constraints: 34

Explored 318 nodes (1774 simplex iterations) in 0.20 seconds
Thread count was 12 (of 12 available processors)

Solution count 3: 294.546 299.051 338.119 

Optimal solution found (tolerance 1.00e-04)
Best objective 2.945459032143e+02, best bound 2.945459032143e+02, gap 0.0000%

User-callback calls 968, time in user-callback 0.00 sec
/projects/academic/josewalt/caigao/RRARP_BD/BendersDecomp/ret/model_outs/n_11_e_10_algo_3.out
 =====>>>>> Solution is written to file in <../ret/model_outs> !!!
===>> All Done!
